words_hard_train/6905.qaiger
aag 186 32 0 1 154
2
4
8
16
28
36
48
56
68
76
88
96
110
112
116
118
130
132
144
146
158
160
172
174
196
204
220
222
332
334
342
344
373
6 3 4
10 4 8
12 5 9
14 11 13
18 15 16
20 14 17
22 19 21
24 6 22
26 25 21
30 13 28
32 12 29
34 31 33
38 35 36
40 34 37
42 39 41
44 27 42
46 45 41
50 33 48
52 32 49
54 51 53
58 55 56
60 54 57
62 59 61
64 47 62
66 65 61
70 53 68
72 52 69
74 71 73
78 75 76
80 74 77
82 79 81
84 67 82
86 85 81
90 73 88
92 72 89
94 91 93
98 95 96
100 94 97
102 99 101
104 86 103
106 87 102
108 105 107
114 110 112
120 117 119
122 116 118
124 121 123
126 114 124
128 127 123
134 131 133
136 130 132
138 135 137
140 129 138
142 141 137
148 145 147
150 144 146
152 149 151
154 143 152
156 155 151
162 159 161
164 158 160
166 163 165
168 157 166
170 169 165
176 173 175
178 172 174
180 177 179
182 170 181
184 171 180
186 183 185
188 109 186
190 108 187
192 189 191
194 107 101
198 93 196
200 92 197
202 199 201
206 203 204
208 202 205
210 207 209
212 194 211
214 195 210
216 213 215
218 185 179
224 221 223
226 220 222
228 225 227
230 218 229
232 219 228
234 231 233
236 216 235
238 192 237
240 46 63
242 241 65
244 142 153
246 245 155
248 243 246
250 242 247
252 249 251
254 66 83
256 255 85
258 156 167
260 259 169
262 256 261
264 252 263
266 26 43
268 267 45
270 128 139
272 271 141
274 269 272
276 268 273
278 275 277
280 7 23
282 281 25
284 115 125
286 285 127
288 283 287
290 282 286
292 289 291
294 2 5
296 295 7
298 111 113
300 299 115
302 297 300
304 296 301
306 303 305
308 293 306
310 278 308
312 257 260
314 310 313
316 264 314
318 238 316
320 217 234
322 318 321
324 215 200
326 214 201
328 325 327
330 328 209
336 333 335
338 332 334
340 337 339
346 343 344
348 342 345
350 347 349
352 341 351
354 340 350
356 353 355
358 233 227
360 357 358
362 356 359
364 361 363
366 331 365
368 330 364
370 367 369
372 322 371
i0 1 x2[0]
i1 2 y1[0]
i2 2 y1[1]
i3 1 x2[1]
i4 2 y1[2]
i5 1 x2[2]
i6 2 y1[3]
i7 1 x2[3]
i8 2 y1[4]
i9 1 x2[4]
i10 2 y1[5]
i11 1 x2[5]
i12 1 x1[0]
i13 2 y2[0]
i14 1 x1[1]
i15 2 y2[1]
i16 1 x1[2]
i17 2 y2[2]
i18 1 x1[3]
i19 2 y2[3]
i20 1 x1[4]
i21 2 y2[4]
i22 1 x1[5]
i23 2 y2[5]
i24 2 y1[6]
i25 1 x2[6]
i26 1 x1[6]
i27 2 y2[6]
i28 1 x1[7]
i29 2 y2[7]
i30 1 x2[7]
i31 2 y1[7]
o0 bool[0]
c
simplified
  !=
    add
      1 x1
      2 y2
    subtract
      invert
        1 x2
      2 y1
