words_hard_train/6905.qaiger.qdimacs
p cnf 186 463
a 1 65 38 102 8 72 166 171 110 79 48 18 86 55 58 28 0
e 2 3 4 5 6 7 9 10 11 12 13 14 15 16 17 19 20 21 22 23 24 25 26 27 29 30 31 32 33 34 35 36 37 39 40 41 42 43 44 45 46 47 49 50 51 52 53 54 56 57 59 60 61 62 63 64 66 67 68 69 70 71 73 74 75 76 77 78 80 81 82 83 84 85 87 88 89 90 91 92 93 94 95 96 97 98 99 100 101 103 104 105 106 107 108 109 111 112 113 114 115 116 117 118 119 120 121 122 123 124 125 126 127 128 129 130 131 132 133 134 135 136 137 138 139 140 141 142 143 144 145 146 147 148 149 150 151 152 153 154 155 156 157 158 159 160 161 162 163 164 165 167 168 169 170 172 173 174 175 176 177 178 179 180 181 182 183 184 185 186 0
1 -2 3 0
-1 -3 0
2 -3 0
-2 -4 5 0
2 -5 0
4 -5 0
2 4 6 0
-2 -6 0
-4 -6 0
5 6 7 0
-5 -7 0
-6 -7 0
7 -8 9 0
-7 -9 0
8 -9 0
-7 8 10 0
7 -10 0
-8 -10 0
9 10 11 0
-9 -11 0
-10 -11 0
-3 -11 12 0
3 -12 0
11 -12 0
12 10 13 0
-12 -13 0
-10 -13 0
6 -14 15 0
-6 -15 0
14 -15 0
-6 14 16 0
6 -16 0
-14 -16 0
15 16 17 0
-15 -17 0
-16 -17 0
17 -18 19 0
-17 -19 0
18 -19 0
-17 18 20 0
17 -20 0
-18 -20 0
19 20 21 0
-19 -21 0
-20 -21 0
13 -21 22 0
-13 -22 0
21 -22 0
22 20 23 0
-22 -23 0
-20 -23 0
16 -24 25 0
-16 -25 0
24 -25 0
-16 24 26 0
16 -26 0
-24 -26 0
25 26 27 0
-25 -27 0
-26 -27 0
27 -28 29 0
-27 -29 0
28 -29 0
-27 28 30 0
27 -30 0
-28 -30 0
29 30 31 0
-29 -31 0
-30 -31 0
23 -31 32 0
-23 -32 0
31 -32 0
32 30 33 0
-32 -33 0
-30 -33 0
26 -34 35 0
-26 -35 0
34 -35 0
-26 34 36 0
26 -36 0
-34 -36 0
35 36 37 0
-35 -37 0
-36 -37 0
37 -38 39 0
-37 -39 0
38 -39 0
-37 38 40 0
37 -40 0
-38 -40 0
39 40 41 0
-39 -41 0
-40 -41 0
33 -41 42 0
-33 -42 0
41 -42 0
42 40 43 0
-42 -43 0
-40 -43 0
36 -44 45 0
-36 -45 0
44 -45 0
-36 44 46 0
36 -46 0
-44 -46 0
45 46 47 0
-45 -47 0
-46 -47 0
47 -48 49 0
-47 -49 0
48 -49 0
-47 48 50 0
47 -50 0
-48 -50 0
49 50 51 0
-49 -51 0
-50 -51 0
-43 51 52 0
43 -52 0
-51 -52 0
43 -51 53 0
-43 -53 0
51 -53 0
52 53 54 0
-52 -54 0
-53 -54 0
-55 -56 57 0
55 -57 0
56 -57 0
58 59 60 0
-58 -60 0
-59 -60 0
-58 -59 61 0
58 -61 0
59 -61 0
60 61 62 0
-60 -62 0
-61 -62 0
-57 -62 63 0
57 -63 0
62 -63 0
63 61 64 0
-63 -64 0
-61 -64 0
65 66 67 0
-65 -67 0
-66 -67 0
-65 -66 68 0
65 -68 0
66 -68 0
67 68 69 0
-67 -69 0
-68 -69 0
64 -69 70 0
-64 -70 0
69 -70 0
70 68 71 0
-70 -71 0
-68 -71 0
72 73 74 0
-72 -74 0
-73 -74 0
-72 -73 75 0
72 -75 0
73 -75 0
74 75 76 0
-74 -76 0
-75 -76 0
71 -76 77 0
-71 -77 0
76 -77 0
77 75 78 0
-77 -78 0
-75 -78 0
79 80 81 0
-79 -81 0
-80 -81 0
-79 -80 82 0
79 -82 0
80 -82 0
81 82 83 0
-81 -83 0
-82 -83 0
78 -83 84 0
-78 -84 0
83 -84 0
84 82 85 0
-84 -85 0
-82 -85 0
86 87 88 0
-86 -88 0
-87 -88 0
-86 -87 89 0
86 -89 0
87 -89 0
88 89 90 0
-88 -90 0
-89 -90 0
-85 90 91 0
85 -91 0
-90 -91 0
85 -90 92 0
-85 -92 0
90 -92 0
91 92 93 0
-91 -93 0
-92 -93 0
54 -93 94 0
-54 -94 0
93 -94 0
-54 93 95 0
54 -95 0
-93 -95 0
94 95 96 0
-94 -96 0
-95 -96 0
53 50 97 0
-53 -97 0
-50 -97 0
46 -98 99 0
-46 -99 0
98 -99 0
-46 98 100 0
46 -100 0
-98 -100 0
99 100 101 0
-99 -101 0
-100 -101 0
101 -102 103 0
-101 -103 0
102 -103 0
-101 102 104 0
101 -104 0
-102 -104 0
103 104 105 0
-103 -105 0
-104 -105 0
-97 105 106 0
97 -106 0
-105 -106 0
97 -105 107 0
-97 -107 0
105 -107 0
106 107 108 0
-106 -108 0
-107 -108 0
92 89 109 0
-92 -109 0
-89 -109 0
110 111 112 0
-110 -112 0
-111 -112 0
-110 -111 113 0
110 -113 0
111 -113 0
112 113 114 0
-112 -114 0
-113 -114 0
-109 114 115 0
109 -115 0
-114 -115 0
109 -114 116 0
-109 -116 0
114 -116 0
115 116 117 0
-115 -117 0
-116 -117 0
-108 117 118 0
108 -118 0
-117 -118 0
-96 118 119 0
96 -119 0
-118 -119 0
-23 31 120 0
23 -120 0
-31 -120 0
120 32 121 0
-120 -121 0
-32 -121 0
-71 76 122 0
71 -122 0
-76 -122 0
122 77 123 0
-122 -123 0
-77 -123 0
121 -123 124 0
-121 -124 0
123 -124 0
-121 123 125 0
121 -125 0
-123 -125 0
124 125 126 0
-124 -126 0
-125 -126 0
-33 41 127 0
33 -127 0
-41 -127 0
127 42 128 0
-127 -128 0
-42 -128 0
-78 83 129 0
78 -129 0
-83 -129 0
129 84 130 0
-129 -130 0
-84 -130 0
-128 130 131 0
128 -131 0
-130 -131 0
-126 131 132 0
126 -132 0
-131 -132 0
-13 21 133 0
13 -133 0
-21 -133 0
133 22 134 0
-133 -134 0
-22 -134 0
-64 69 135 0
64 -135 0
-69 -135 0
135 70 136 0
-135 -136 0
-70 -136 0
134 -136 137 0
-134 -137 0
136 -137 0
-134 136 138 0
134 -138 0
-136 -138 0
137 138 139 0
-137 -139 0
-138 -139 0
3 11 140 0
-3 -140 0
-11 -140 0
140 12 141 0
-140 -141 0
-12 -141 0
57 62 142 0
-57 -142 0
-62 -142 0
142 63 143 0
-142 -143 0
-63 -143 0
141 143 144 0
-141 -144 0
-143 -144 0
-141 -143 145 0
141 -145 0
143 -145 0
144 145 146 0
-144 -146 0
-145 -146 0
-1 2 147 0
1 -147 0
-2 -147 0
147 3 148 0
-147 -148 0
-3 -148 0
55 56 149 0
-55 -149 0
-56 -149 0
149 57 150 0
-149 -150 0
-57 -150 0
148 -150 151 0
-148 -151 0
150 -151 0
-148 150 152 0
148 -152 0
-150 -152 0
151 152 153 0
-151 -153 0
-152 -153 0
146 -153 154 0
-146 -154 0
153 -154 0
-139 -154 155 0
139 -155 0
154 -155 0
128 -130 156 0
-128 -156 0
130 -156 0
-155 156 157 0
155 -157 0
-156 -157 0
-132 -157 158 0
132 -158 0
157 -158 0
-119 -158 159 0
119 -159 0
158 -159 0
108 -117 160 0
-108 -160 0
117 -160 0
-159 160 161 0
159 -161 0
-160 -161 0
107 -100 162 0
-107 -162 0
100 -162 0
-107 100 163 0
107 -163 0
-100 -163 0
162 163 164 0
-162 -164 0
-163 -164 0
-164 104 165 0
164 -165 0
-104 -165 0
166 167 168 0
-166 -168 0
-167 -168 0
-166 -167 169 0
166 -169 0
167 -169 0
168 169 170 0
-168 -170 0
-169 -170 0
171 -172 173 0
-171 -173 0
172 -173 0
-171 172 174 0
171 -174 0
-172 -174 0
173 174 175 0
-173 -175 0
-174 -175 0
170 175 176 0
-170 -176 0
-175 -176 0
-170 -175 177 0
170 -177 0
175 -177 0
176 177 178 0
-176 -178 0
-177 -178 0
116 113 179 0
-116 -179 0
-113 -179 0
178 -179 180 0
-178 -180 0
179 -180 0
-178 179 181 0
178 -181 0
-179 -181 0
180 181 182 0
-180 -182 0
-181 -182 0
165 182 183 0
-165 -183 0
-182 -183 0
-165 -182 184 0
165 -184 0
182 -184 0
183 184 185 0
-183 -185 0
-184 -185 0
-161 185 186 0
161 -186 0
-185 -186 0
-186 0
